100
1000
200
200
199
199
199
198
198
197
197
197
197
195
195
195
194
194
194
194
194
194
193
193
192
192
191
190
190
190
190
189
189
188
187
186
185
184
184
184
184
184
183
183
183
181
180
180
179
178
178
177
176
176
176
176
176
174
174
173
173
173
172
172
171
171
171
170
170
168
168
167
167
165
164
164
164
164
163
162
161
160
160
158
157
157
156
156
155
155
155
154
153
153
153
153
152
152
152
151
150
150
